*SENSE:Minimize
NAME          MODEL
ROWS
 N  OBJ
 G  C0000000
 G  C0000001
 G  C0000002
 G  C0000003
 G  C0000004
 G  C0000005
 G  C0000006
 G  C0000007
 G  C0000008
 G  C0000009
 G  C0000010
COLUMNS
    X0000000  C0000000   8.798000000000e+01
    X0000000  OBJ        8.798000000000e+01
    X0000001  C0000001   1.057000000000e+01
    X0000001  OBJ        1.057000000000e+01
    X0000002  C0000002   1.090000000000e+01
    X0000002  OBJ        1.090000000000e+01
    X0000003  C0000003   1.737900000000e+02
    X0000003  OBJ        1.737900000000e+02
    X0000004  C0000004   1.115000000000e+02
    X0000004  OBJ        1.115000000000e+02
    X0000005  C0000005   1.409300000000e+02
    X0000005  OBJ        1.409300000000e+02
    X0000006  C0000006   1.588000000000e+02
    X0000006  OBJ        1.588000000000e+02
    X0000007  C0000007   1.187000000000e+02
    X0000007  OBJ        1.187000000000e+02
    X0000008  C0000008   1.022900000000e+02
    X0000008  OBJ        1.022900000000e+02
    X0000009  C0000009   1.217000000000e+02
    X0000009  OBJ        1.217000000000e+02
    X0000010  C0000010   8.938000000000e+01
    X0000010  OBJ        8.938000000000e+01
RHS
    RHS       C0000000   5.848217375963e-02
    RHS       C0000001   6.230342249271e-01
    RHS       C0000002   5.149268481805e-02
    RHS       C0000003   1.786317716155e-02
    RHS       C0000004   8.083690290648e-02
    RHS       C0000005   2.783810490290e-02
    RHS       C0000006   2.718855071041e-02
    RHS       C0000007   4.882499463281e-02
    RHS       C0000008   4.968843886471e-02
    RHS       C0000009   3.041152259959e-03
    RHS       C0000010   1.170959505637e-02
BOUNDS
ENDATA
